NAME: cuum310.tsp
TYPE: TSP
COMMENT: User-generated TSP file
DIMENSION: 310
EDGE_WEIGHT_TYPE: EUC_2D
NODE_COORD_SECTION
1 253.0 292.0
2 102.0 234.0
3 239.0 255.0
4 201.0 166.0
5 278.0 19.0
6 30.0 77.0
7 232.0 4.0
8 114.0 206.0
9 110.0 233.0
10 151.0 298.0
11 309.0 224.0
12 295.0 184.0
13 42.0 306.0
14 26.0 119.0
15 120.0 202.0
16 141.0 168.0
17 22.0 21.0
18 279.0 92.0
19 57.0 26.0
20 288.0 58.0
21 84.0 207.0
22 56.0 260.0
23 278.0 167.0
24 142.0 116.0
25 189.0 151.0
26 158.0 95.0
27 98.0 218.0
28 62.0 89.0
29 77.0 75.0
30 41.0 209.0
31 104.0 31.0
32 258.0 188.0
33 103.0 252.0
34 5.0 43.0
35 290.0 17.0
36 155.0 40.0
37 31.0 233.0
38 184.0 276.0
39 28.0 205.0
40 273.0 288.0
41 25.0 127.0
42 306.0 154.0
43 113.0 41.0
44 190.0 71.0
45 201.0 155.0
46 189.0 254.0
47 163.0 278.0
48 271.0 256.0
49 237.0 254.0
50 100.0 209.0
51 120.0 268.0
52 204.0 205.0
53 278.0 54.0
54 165.0 7.0
55 266.0 277.0
56 216.0 146.0
57 200.0 307.0
58 89.0 218.0
59 44.0 97.0
60 262.0 60.0
61 122.0 295.0
62 235.0 44.0
63 292.0 238.0
64 158.0 35.0
65 28.0 48.0
66 282.0 174.0
67 120.0 85.0
68 310.0 1.0
69 116.0 206.0
70 290.0 45.0
71 293.0 154.0
72 231.0 118.0
73 283.0 47.0
74 67.0 253.0
75 49.0 45.0
76 136.0 245.0
77 304.0 260.0
78 280.0 92.0
79 218.0 210.0
80 304.0 169.0
81 45.0 67.0
82 268.0 211.0
83 193.0 248.0
84 105.0 64.0
85 257.0 182.0
86 280.0 293.0
87 168.0 68.0
88 95.0 139.0
89 206.0 76.0
90 220.0 13.0
91 154.0 304.0
92 199.0 38.0
93 258.0 74.0
94 117.0 80.0
95 167.0 247.0
96 148.0 225.0
97 271.0 296.0
98 45.0 167.0
99 215.0 128.0
100 110.0 260.0
101 296.0 72.0
102 207.0 4.0
103 4.0 183.0
104 25.0 229.0
105 269.0 145.0
106 118.0 191.0
107 34.0 191.0
108 283.0 274.0
109 142.0 171.0
110 154.0 36.0
111 140.0 25.0
112 195.0 217.0
113 29.0 266.0
114 141.0 95.0
115 137.0 7.0
116 264.0 112.0
117 13.0 305.0
118 252.0 244.0
119 153.0 281.0
120 67.0 238.0
121 32.0 36.0
122 100.0 76.0
123 139.0 124.0
124 254.0 176.0
125 291.0 87.0
126 267.0 134.0
127 203.0 44.0
128 48.0 33.0
129 238.0 164.0
130 188.0 259.0
131 123.0 211.0
132 229.0 240.0
133 147.0 270.0
134 69.0 67.0
135 190.0 14.0
136 232.0 92.0
137 267.0 158.0
138 128.0 18.0
139 20.0 74.0
140 73.0 51.0
141 130.0 193.0
142 194.0 173.0
143 111.0 209.0
144 139.0 101.0
145 15.0 147.0
146 50.0 160.0
147 152.0 249.0
148 278.0 53.0
149 160.0 3.0
150 93.0 87.0
151 261.0 23.0
152 265.0 268.0
153 269.0 237.0
154 116.0 166.0
155 305.0 288.0
156 52.0 241.0
157 59.0 283.0
158 57.0 79.0
159 140.0 189.0
160 39.0 269.0
161 119.0 249.0
162 123.0 5.0
163 255.0 234.0
164 47.0 164.0
165 78.0 250.0
166 286.0 113.0
167 71.0 206.0
168 113.0 201.0
169 122.0 11.0
170 257.0 212.0
171 91.0 105.0
172 183.0 273.0
173 35.0 63.0
174 270.0 135.0
175 234.0 19.0
176 150.0 2.0
177 174.0 76.0
178 194.0 189.0
179 60.0 259.0
180 87.0 137.0
181 308.0 232.0
182 259.0 188.0
183 168.0 165.0
184 244.0 233.0
185 301.0 232.0
186 174.0 293.0
187 99.0 48.0
188 83.0 288.0
189 241.0 277.0
190 190.0 241.0
191 153.0 129.0
192 62.0 62.0
193 199.0 15.0
194 143.0 61.0
195 188.0 265.0
196 211.0 141.0
197 137.0 239.0
198 154.0 14.0
199 291.0 162.0
200 191.0 297.0
201 155.0 307.0
202 6.0 224.0
203 210.0 6.0
204 145.0 176.0
205 306.0 281.0
206 245.0 156.0
207 246.0 7.0
208 98.0 43.0
209 180.0 88.0
210 106.0 169.0
211 30.0 286.0
212 66.0 276.0
213 40.0 209.0
214 123.0 50.0
215 7.0 113.0
216 88.0 249.0
217 304.0 26.0
218 212.0 196.0
219 87.0 38.0
220 163.0 240.0
221 62.0 179.0
222 109.0 47.0
223 157.0 121.0
224 107.0 133.0
225 241.0 280.0
226 221.0 137.0
227 7.0 117.0
228 95.0 15.0
229 249.0 201.0
230 107.0 250.0
231 262.0 123.0
232 151.0 277.0
233 233.0 151.0
234 171.0 75.0
235 108.0 211.0
236 261.0 140.0
237 149.0 203.0
238 279.0 268.0
239 117.0 16.0
240 194.0 302.0
241 271.0 58.0
242 154.0 131.0
243 19.0 139.0
244 76.0 203.0
245 105.0 233.0
246 253.0 152.0
247 55.0 182.0
248 26.0 282.0
249 215.0 15.0
250 68.0 254.0
251 233.0 151.0
252 19.0 267.0
253 138.0 210.0
254 182.0 95.0
255 256.0 114.0
256 149.0 68.0
257 155.0 214.0
258 79.0 104.0
259 125.0 45.0
260 196.0 16.0
261 71.0 185.0
262 121.0 152.0
263 299.0 255.0
264 270.0 204.0
265 287.0 155.0
266 225.0 63.0
267 20.0 237.0
268 86.0 181.0
269 78.0 106.0
270 135.0 252.0
271 15.0 242.0
272 65.0 251.0
273 115.0 204.0
274 138.0 48.0
275 307.0 258.0
276 291.0 231.0
277 166.0 81.0
278 188.0 132.0
279 178.0 127.0
280 82.0 301.0
281 199.0 224.0
282 6.0 257.0
283 310.0 62.0
284 50.0 185.0
285 47.0 260.0
286 190.0 213.0
287 109.0 303.0
288 76.0 161.0
289 115.0 71.0
290 129.0 85.0
291 185.0 298.0
292 139.0 221.0
293 79.0 60.0
294 32.0 49.0
295 216.0 150.0
296 223.0 46.0
297 135.0 98.0
298 235.0 201.0
299 299.0 128.0
300 298.0 195.0
301 208.0 111.0
302 17.0 303.0
303 288.0 265.0
304 297.0 147.0
305 177.0 171.0
306 105.0 287.0
307 99.0 172.0
308 251.0 272.0
309 97.0 183.0
310 35.0 262.0
EOF





